SAT
92 -98 -49 -4 1 -10 30 -99 45 -89 54 36 87 -35 65 -71 -76 17 -40 -73 -6 -69 -38 7 -85 67 96 72 -37 43 18 -12 5 -60 83 -74 -90 15 31 41 -62 -47 -14 94 -88 -79 -13 52 50 33 46 -77 8 -80 -82 44 59 19 -26 -21 -93 -3 91 58 -55 81 57 -95 86 51 -16 27 -66 -68 -34 56 -39 -23 100 78 -28 -11 29 61 2 -70 -20 42 -22 -48 84 25 9 53 -32 -24 97 63 75 -64 0
